p tw 28 86
0 1
0 2
0 3
0 4
0 5
0 13
0 14
0 15
0 16
0 17
1 2
1 3
1 4
1 5
2 3
2 4
2 5
3 4
3 5
4 5
4 13
4 14
4 15
4 16
4 17
6 7
6 8
6 9
6 10
6 11
6 12
7 8
7 9
7 10
7 11
7 12
7 21
7 24
7 25
7 26
7 27
8 9
8 10
8 11
8 12
9 10
9 11
9 12
10 11
10 12
11 12
13 14
13 15
13 16
13 17
14 15
14 16
14 17
15 16
15 17
16 17
18 19
18 20
18 21
18 22
18 23
19 20
19 21
19 22
19 23
20 21
20 22
20 23
21 22
21 23
21 24
21 25
21 26
21 27
22 23
24 25
24 26
24 27
25 26
25 27
26 27
